32	0

0	3	2	3	4
10	1	5
4	1	5
2	1	5
8	1	6
3	2	7	8
5	1	9
3	1	9
2	1	10
5	1	11
1	1	12
2	1	13
1	2	14	18
2	2	15	16
7	1	17
6	1	17
2	1	19
10	1	19
9	1	20
1	2	21	22
9	1	23
5	1	23
8	1	24
5	1	25
10	1	26
8	1	27
1	1	28
9	1	29
2	1	30
6	1	31
6	1	32
0	0
